(declare-fun cmp_50_16 () (_ BitVec 1))
(declare-fun i_50_14 () (_ BitVec 64))
(declare-fun reg_50_6 () (_ BitVec 64))
(declare-fun reg_50_13 () (_ BitVec 8))
(declare-fun reg_50_12 () (_ BitVec 32))
(declare-fun reg_50_11 () (_ BitVec 32))
(declare-fun reg_50_10 () (_ BitVec 32))
(declare-fun reg_50_9 () (_ BitVec 64))
(declare-fun reg_50_8 () (_ BitVec 64))
(declare-fun reg_50_7 () (_ BitVec 64))
(declare-fun reg_50_5 () (_ BitVec 64))
(declare-fun reg_50_4 () (_ BitVec 64))
(declare-fun reg_50_3 () (_ BitVec 32))
(declare-fun reg_50_2 () (_ BitVec 32))
(declare-fun reg_50_1 () (_ BitVec 32))
(declare-fun reg_50_0 () (_ BitVec 32))
(declare-fun cmp1_50_19 () (_ BitVec 1))
(declare-fun i33_50_17 () (_ BitVec 64))
(declare-fun i38_50_28 () (_ BitVec 64))
(declare-fun cmp16_50_27 () (_ BitVec 1))
(declare-fun i37_50_25 () (_ BitVec 64))
(declare-fun cmp31_50_31 () (_ BitVec 1))
(declare-fun reg_50_60 () (_ BitVec 8))
(declare-fun reg_50_46 () (_ BitVec 8))
(declare-fun reg_50_59 () (_ BitVec 32))
(declare-fun reg_50_45 () (_ BitVec 32))
(declare-fun reg_50_58 () (_ BitVec 32))
(declare-fun reg_50_44 () (_ BitVec 32))
(declare-fun reg_50_57 () (_ BitVec 32))
(declare-fun reg_50_43 () (_ BitVec 32))
(declare-fun reg_50_56 () (_ BitVec 64))
(declare-fun reg_50_42 () (_ BitVec 64))
(declare-fun reg_50_55 () (_ BitVec 64))
(declare-fun reg_50_41 () (_ BitVec 64))
(declare-fun reg_50_54 () (_ BitVec 64))
(declare-fun reg_50_40 () (_ BitVec 64))
(declare-fun reg_50_53 () (_ BitVec 64))
(declare-fun reg_50_39 () (_ BitVec 64))
(declare-fun reg_50_52 () (_ BitVec 64))
(declare-fun reg_50_38 () (_ BitVec 64))
(declare-fun reg_50_51 () (_ BitVec 64))
(declare-fun reg_50_37 () (_ BitVec 64))
(declare-fun reg_50_50 () (_ BitVec 32))
(declare-fun reg_50_36 () (_ BitVec 32))
(declare-fun reg_50_49 () (_ BitVec 32))
(declare-fun reg_50_35 () (_ BitVec 32))
(declare-fun reg_50_48 () (_ BitVec 32))
(declare-fun reg_50_34 () (_ BitVec 32))
(declare-fun reg_50_47 () (_ BitVec 32))
(declare-fun reg_50_33 () (_ BitVec 32))
(declare-fun cond40_50_32 () (_ BitVec 64))
(declare-fun cond27_50_29 () (_ BitVec 64))
(declare-fun cond12_50_24 () (_ BitVec 64))
(declare-fun cond_50_21 () (_ BitVec 64))
(declare-fun i36_50_23 () (_ BitVec 64))
(declare-fun i35_50_22 () (_ BitVec 64))
(declare-fun i34_50_20 () (_ BitVec 64))
(assert (let ((a!1 (and (= cmp16_50_27 #b0) (and (= cmp1_50_19 #b0) (= cmp_50_16 #b0))))
      (a!2 (and (= cond40_50_32
                   (ite (bvuge i_50_14 i38_50_28) i_50_14 i38_50_28))))
      (a!3 (and (= cmp16_50_27 #b1) (and (= cmp1_50_19 #b0) (= cmp_50_16 #b0))))
      (a!4 (and (= cond27_50_29
                   (ite (bvule i33_50_17 i37_50_25) i33_50_17 i37_50_25))))
      (a!5 (or (and (= cmp1_50_19 #b1) (= cmp_50_16 #b0)) (= cmp_50_16 #b1)))
      (a!6 (and (= reg_50_8 i34_50_20)
                (= cond_50_21 (ite (bvuge i_50_14 i34_50_20) i_50_14 i34_50_20))
                (= reg_50_7 i35_50_22)
                (= reg_50_9 i36_50_23)
                (= cond12_50_24
                   (ite (bvule i35_50_22 i36_50_23) i35_50_22 i36_50_23))))
      (a!10 (=> (and (= cmp1_50_19 #b0) (= cmp_50_16 #b0))
                (and (= reg_50_9 i37_50_25)
                     (ite (bvsgt i37_50_25 #xffffffffffffffff)
                          (= cmp16_50_27 #b1)
                          (= cmp16_50_27 #b0))
                     (= reg_50_8 i38_50_28))))
      (a!11 (=> (= cmp_50_16 #b0)
                (and (= reg_50_7 i33_50_17)
                     (ite (bvslt i33_50_17 #x0000000000000000)
                          (= cmp1_50_19 #b1)
                          (= cmp1_50_19 #b0))))))
(let ((a!7 (and (=> a!5
                    (and (= reg_50_0 reg_50_33)
                         (= reg_50_1 reg_50_34)
                         (= reg_50_2 reg_50_35)
                         (= reg_50_3 reg_50_36)
                         (= reg_50_4 reg_50_37)
                         (= reg_50_5 reg_50_38)
                         (= cond_50_21 reg_50_39)
                         (= cond12_50_24 reg_50_40)
                         (= cond_50_21 reg_50_41)
                         (= cond12_50_24 reg_50_42)
                         (= reg_50_10 reg_50_43)
                         (= reg_50_11 reg_50_44)
                         (= reg_50_12 reg_50_45)
                         (= reg_50_13 reg_50_46)))
                (=> a!3
                    (and (= reg_50_0 reg_50_33)
                         (= reg_50_1 reg_50_34)
                         (= reg_50_2 reg_50_35)
                         (= reg_50_3 reg_50_36)
                         (= reg_50_4 reg_50_37)
                         (= reg_50_5 reg_50_38)
                         (= i38_50_28 reg_50_39)
                         (= cond27_50_29 reg_50_40)
                         (= reg_50_8 reg_50_41)
                         (= cond27_50_29 reg_50_42)
                         (= reg_50_10 reg_50_43)
                         (= reg_50_11 reg_50_44)
                         (= reg_50_12 reg_50_45)
                         (= reg_50_13 reg_50_46)))
                (=> (and (= cmp31_50_31 #b0) a!1)
                    (and (= reg_50_0 reg_50_33)
                         (= reg_50_1 reg_50_34)
                         (= reg_50_2 reg_50_35)
                         (= reg_50_3 reg_50_36)
                         (= reg_50_4 reg_50_37)
                         (= reg_50_5 reg_50_38)
                         (= reg_50_6 reg_50_39)
                         (= reg_50_7 reg_50_40)
                         (= reg_50_8 reg_50_41)
                         (= reg_50_9 reg_50_42)
                         (= reg_50_10 reg_50_43)
                         (= reg_50_11 reg_50_44)
                         (= reg_50_12 reg_50_45)
                         (= reg_50_13 reg_50_46)))
                (=> (and (= cmp31_50_31 #b1) a!1)
                    (and (= reg_50_0 reg_50_33)
                         (= reg_50_1 reg_50_34)
                         (= reg_50_2 reg_50_35)
                         (= reg_50_3 reg_50_36)
                         (= reg_50_4 reg_50_37)
                         (= reg_50_5 reg_50_38)
                         (= cond40_50_32 reg_50_39)
                         (= i37_50_25 reg_50_40)
                         (= cond40_50_32 reg_50_41)
                         (= reg_50_9 reg_50_42)
                         (= reg_50_10 reg_50_43)
                         (= reg_50_11 reg_50_44)
                         (= reg_50_12 reg_50_45)
                         (= reg_50_13 reg_50_46)))
                (= reg_50_33 reg_50_47)
                (= reg_50_34 reg_50_48)
                (= reg_50_35 reg_50_49)
                (= reg_50_36 reg_50_50)
                (= reg_50_37 reg_50_51)
                (= reg_50_38 reg_50_52)
                (= reg_50_39 reg_50_53)
                (= reg_50_40 reg_50_54)
                (= reg_50_41 reg_50_55)
                (= reg_50_42 reg_50_56)
                (= reg_50_43 reg_50_57)
                (= reg_50_44 reg_50_58)
                (= reg_50_45 reg_50_59)
                (= reg_50_46 reg_50_60)))
      (a!9 (=> a!1
               (and (ite (bvslt i38_50_28 #x0000000000000000)
                         (= cmp31_50_31 #b1)
                         (= cmp31_50_31 #b0))))))
(let ((a!8 (=> (or (and (= cmp31_50_31 #b1) a!1)
                   (and (= cmp31_50_31 #b0) a!1)
                   a!3
                   a!5)
               a!7)))
  (and (=> (and (= cmp31_50_31 #b1) a!1) a!2)
       (=> a!3 a!4)
       (=> a!5 a!6)
       a!8
       a!9
       a!10
       a!11
       (= reg_50_0 reg_50_0)
       (= reg_50_1 reg_50_1)
       (= reg_50_2 reg_50_2)
       (= reg_50_3 reg_50_3)
       (= reg_50_4 reg_50_4)
       (= reg_50_5 reg_50_5)
       (= reg_50_6 reg_50_6)
       (= reg_50_7 reg_50_7)
       (= reg_50_8 reg_50_8)
       (= reg_50_9 reg_50_9)
       (= reg_50_10 reg_50_10)
       (= reg_50_11 reg_50_11)
       (= reg_50_12 reg_50_12)
       (= reg_50_13 reg_50_13)
       (= reg_50_6 i_50_14)
       (ite (bvsgt i_50_14 #xffffffffffffffff)
            (= cmp_50_16 #b1)
            (= cmp_50_16 #b0)))))))

;{"reg":["reg_50_0",[""],"reg_50_1","reg_50_2","reg_50_3",["reg_50_4","reg_50_5"],"reg_50_6","reg_50_7","reg_50_8","reg_50_9","","","reg_50_10","reg_50_11","reg_50_12"]}
;{"reg":["reg_50_47",[""],"reg_50_48","reg_50_49","reg_50_50",["reg_50_51","reg_50_52"],"reg_50_53","reg_50_54","reg_50_55","reg_50_56","","","reg_50_57","reg_50_58","reg_50_59"]}
